Minimize
 Cost:   LoadFunction 
Subject To
Coverage.1: d_1_0 + d_1_1 + d_1_2 + d_1_3 + d_1_4 + d_1_5 + d_1_6 + d_1_7 + d_1_8 + d_1_9 + d_1_10 + d_1_11 + d_1_12 + d_1_13 + d_1_14 + d_1_15 + d_1_16 + d_1_17 + d_1_18 + d_1_19 + d_1_20 + d_1_21 + d_1_22 + d_1_23 + d_1_24 + d_1_25 + d_1_26 + d_1_27 + d_1_28 + d_1_29  >= 30
ProcLoad.M3: Load_M3  -  d_1_22 -  d_1_8 -  d_1_12 -  d_1_2 -  d_1_0 -  d_1_21 -  d_1_10 -  d_1_23 -  d_1_9 -  d_1_11 -  d_1_19 -  d_1_7 -  d_1_18 -  d_1_25 -  d_1_13 -  d_1_20 -  d_1_29 -  d_1_24 -  d_1_26 -  d_1_5 -  d_1_16 -  d_1_1 -  d_1_28 -  d_1_4 -  d_1_15 -  d_1_27 -  d_1_6 -  d_1_17 -  d_1_14 -  d_1_3 = 0
ProcLoad.M5: Load_M5  -  d_1_28 -  d_1_4 -  d_1_27 -  d_1_8 -  d_1_24 -  d_1_17 = 0
ProcLoad.M12: Load_M12  -  d_1_21 -  d_1_4 -  d_1_12 -  d_1_6 -  d_1_11 = 0
ProcLoad.M4: Load_M4  -  d_1_18 -  d_1_15 -  d_1_27 -  d_1_25 -  d_1_23 = 0
ProcLoad.M10: Load_M10  -  d_1_1 -  d_1_20 -  d_1_8 -  d_1_9 -  d_1_26 = 0
ProcLoad.M11: Load_M11  -  d_1_7 -  d_1_15 -  d_1_10 -  d_1_12 -  d_1_9 -  d_1_3 = 0
ProcLoad.M7: Load_M7  -  d_1_22 -  d_1_16 -  d_1_18 -  d_1_20 -  d_1_14 -  d_1_11 = 0
ProcLoad.M8: Load_M8  -  d_1_19 -  d_1_16 -  d_1_7 -  d_1_29 -  d_1_24 = 0
ProcLoad.M1: Load_M1  -  d_1_19 -  d_1_0 -  d_1_25 -  d_1_6 -  d_1_26 -  d_1_2 = 0
ProcLoad.M2: Load_M2  -  d_1_5 -  d_1_22 -  d_1_28 -  d_1_10 -  d_1_2 = 0
ProcLoad.M6: Load_M6  -  d_1_0 -  d_1_13 -  d_1_17 -  d_1_14 -  d_1_3 = 0
ProcLoad.M9: Load_M9  -  d_1_5 -  d_1_1 -  d_1_21 -  d_1_13 -  d_1_23 -  d_1_29 = 0
MaxProcLoadBound.M3: Load_M3 - LoadFunction <= 0
MaxProcLoadBound.M5: Load_M5 - LoadFunction <= 0
MaxProcLoadBound.M12: Load_M12 - LoadFunction <= 0
MaxProcLoadBound.M4: Load_M4 - LoadFunction <= 0
MaxProcLoadBound.M10: Load_M10 - LoadFunction <= 0
MaxProcLoadBound.M11: Load_M11 - LoadFunction <= 0
MaxProcLoadBound.M7: Load_M7 - LoadFunction <= 0
MaxProcLoadBound.M8: Load_M8 - LoadFunction <= 0
MaxProcLoadBound.M1: Load_M1 - LoadFunction <= 0
MaxProcLoadBound.M2: Load_M2 - LoadFunction <= 0
MaxProcLoadBound.M6: Load_M6 - LoadFunction <= 0
MaxProcLoadBound.M9: Load_M9 - LoadFunction <= 0
RuleLoad.S6:  2 d_1_22 + 1 d_1_8 + 1 d_1_12 + 2 d_1_0 + 1 d_1_21 + 1 d_1_10 + 1 d_1_23 + 1 d_1_9 + 2 d_1_11 + 2 d_1_19 + 1 d_1_7 + 2 d_1_18 + 2 d_1_13 + 2 d_1_20 + 1 d_1_29 + 2 d_1_24 + 1 d_1_26 + 1 d_1_1 + 2 d_1_16 + 1 d_1_4 + 1 d_1_15 + 1 d_1_27 + 1 d_1_6 + 3 d_1_14 + 2 d_1_17 + 2 d_1_3 <= 200
RuleLoad.S1:  1 d_1_22 + 1 d_1_8 + 1 d_1_12 + 3 d_1_2 + 3 d_1_0 + 1 d_1_21 + 1 d_1_10 + 1 d_1_23 + 1 d_1_9 + 1 d_1_11 + 3 d_1_19 + 1 d_1_7 + 1 d_1_18 + 3 d_1_25 + 1 d_1_13 + 1 d_1_20 + 1 d_1_29 + 1 d_1_24 + 3 d_1_26 + 1 d_1_5 + 1 d_1_16 + 1 d_1_1 + 1 d_1_28 + 1 d_1_4 + 1 d_1_15 + 1 d_1_27 + 3 d_1_6 + 1 d_1_17 + 1 d_1_14 + 1 d_1_3 <= 200
RuleLoad.S11:  2 d_1_7 + 2 d_1_15 + 1 d_1_20 + 2 d_1_10 + 2 d_1_12 + 2 d_1_9 + 2 d_1_3 <= 200
RuleLoad.S10:  1 d_1_7 + 2 d_1_20 + 2 d_1_8 + 2 d_1_12 + 2 d_1_26 + 2 d_1_1 + 1 d_1_15 + 1 d_1_10 + 3 d_1_9 + 1 d_1_3 <= 200
RuleLoad.S9:  2 d_1_8 + 3 d_1_12 + 3 d_1_21 + 1 d_1_10 + 2 d_1_23 + 2 d_1_9 + 2 d_1_11 + 1 d_1_7 + 2 d_1_13 + 1 d_1_20 + 2 d_1_29 + 2 d_1_26 + 2 d_1_5 + 3 d_1_1 + 2 d_1_4 + 1 d_1_15 + 2 d_1_6 + 1 d_1_3 <= 200
RuleLoad.S4:  1 d_1_22 + 1 d_1_8 + 1 d_1_12 + 2 d_1_0 + 1 d_1_21 + 1 d_1_10 + 2 d_1_23 + 1 d_1_9 + 1 d_1_11 + 2 d_1_19 + 1 d_1_7 + 2 d_1_18 + 2 d_1_25 + 1 d_1_13 + 1 d_1_20 + 1 d_1_29 + 1 d_1_24 + 1 d_1_26 + 1 d_1_1 + 1 d_1_16 + 1 d_1_4 + 2 d_1_15 + 2 d_1_27 + 1 d_1_6 + 1 d_1_14 + 1 d_1_17 + 1 d_1_3 <= 200
RuleLoad.S8:  2 d_1_22 + 1 d_1_8 + 1 d_1_12 + 1 d_1_21 + 1 d_1_10 + 1 d_1_23 + 1 d_1_9 + 3 d_1_11 + 2 d_1_19 + 2 d_1_7 + 2 d_1_18 + 1 d_1_13 + 2 d_1_20 + 2 d_1_29 + 2 d_1_24 + 1 d_1_26 + 1 d_1_1 + 3 d_1_16 + 1 d_1_4 + 1 d_1_15 + 1 d_1_6 + 2 d_1_14 + 1 d_1_3 <= 200
RuleLoad.S2:  1 d_1_19 + 2 d_1_22 + 1 d_1_25 + 2 d_1_26 + 3 d_1_2 + 1 d_1_0 + 2 d_1_5 + 2 d_1_28 + 2 d_1_10 + 2 d_1_6 <= 200
RuleLoad.S5:  2 d_1_22 + 3 d_1_8 + 2 d_1_12 + 1 d_1_2 + 1 d_1_0 + 2 d_1_21 + 2 d_1_10 + 2 d_1_23 + 2 d_1_9 + 2 d_1_11 + 1 d_1_19 + 2 d_1_7 + 2 d_1_18 + 1 d_1_25 + 2 d_1_13 + 2 d_1_20 + 2 d_1_29 + 3 d_1_24 + 2 d_1_26 + 3 d_1_5 + 2 d_1_16 + 2 d_1_1 + 3 d_1_28 + 3 d_1_4 + 2 d_1_15 + 3 d_1_27 + 2 d_1_6 + 3 d_1_17 + 2 d_1_14 + 2 d_1_3 <= 200
RuleLoad.S7:  2 d_1_22 + 1 d_1_7 + 2 d_1_18 + 2 d_1_20 + 2 d_1_16 + 1 d_1_15 + 1 d_1_10 + 2 d_1_14 + 1 d_1_3 + 2 d_1_11 <= 200
RuleLoad.S3:  2 d_1_22 + 2 d_1_8 + 2 d_1_12 + 2 d_1_2 + 2 d_1_0 + 2 d_1_21 + 2 d_1_10 + 2 d_1_23 + 2 d_1_9 + 2 d_1_11 + 2 d_1_19 + 2 d_1_7 + 2 d_1_18 + 2 d_1_25 + 2 d_1_13 + 2 d_1_20 + 2 d_1_29 + 2 d_1_24 + 3 d_1_26 + 3 d_1_5 + 2 d_1_16 + 2 d_1_1 + 3 d_1_28 + 2 d_1_4 + 2 d_1_15 + 2 d_1_27 + 3 d_1_6 + 2 d_1_17 + 2 d_1_14 + 2 d_1_3 <= 200
Binaries
d_1_0
d_1_1
d_1_2
d_1_3
d_1_4
d_1_5
d_1_6
d_1_7
d_1_8
d_1_9
d_1_10
d_1_11
d_1_12
d_1_13
d_1_14
d_1_15
d_1_16
d_1_17
d_1_18
d_1_19
d_1_20
d_1_21
d_1_22
d_1_23
d_1_24
d_1_25
d_1_26
d_1_27
d_1_28
d_1_29
End
